\ Model Main-Problem_copy
\ LP format - for model browsing. Use MPS format to capture full model detail.
Maximize
 
Subject To
 Gamma_contraint_0: gamma <= -100
 Gamma_contraint_for_benders_7_1: 1.932665628697027 DA_production_h_7
   - gamma <= 61.14651284486796
Bounds
 gamma free
End
